0 5117
2401 4976
4802 4890
7203 4812
9604 4738
12005 4674
14406 4613
16807 4524
19208 4478
21609 4436
24010 4376
26411 4342
28812 4309
31213 4294
33614 4267
36015 4249
38416 4233
40817 4223
43218 4194
45619 4170
48020 4163
50421 4129
52822 4116
55223 4115
60025 4110
62426 4088
64827 4081
67228 4075
69629 4062
72030 4060
74431 4052
81634 4050
84035 4033
86436 4024
88837 4020
91238 4016
93639 4015
96040 4012
105644 4007
108045 4002
110446 4001
124852 3999
127253 3996
129654 3986
132055 3984
134456 3982
136857 3981
139258 3975
141659 3972
429779 3971
432180 3967
448987 3966
451388 3964
